c generated by sgen
p cnf 69 148
-2 -3 -4 0
-1 -3 -4 0
-1 -2 -4 0
-1 -2 -3 0
-6 -7 -8 0
-5 -7 -8 0
-5 -6 -8 0
-5 -6 -7 0
-10 -11 -12 0
-9 -11 -12 0
-9 -10 -12 0
-9 -10 -11 0
-14 -15 -16 0
-13 -15 -16 0
-13 -14 -16 0
-13 -14 -15 0
-18 -19 -20 0
-17 -19 -20 0
-17 -18 -20 0
-17 -18 -19 0
-22 -23 -24 0
-21 -23 -24 0
-21 -22 -24 0
-21 -22 -23 0
-26 -27 -28 0
-25 -27 -28 0
-25 -26 -28 0
-25 -26 -27 0
-30 -31 -32 0
-29 -31 -32 0
-29 -30 -32 0
-29 -30 -31 0
-34 -35 -36 0
-33 -35 -36 0
-33 -34 -36 0
-33 -34 -35 0
-38 -39 -40 0
-37 -39 -40 0
-37 -38 -40 0
-37 -38 -39 0
-42 -43 -44 0
-41 -43 -44 0
-41 -42 -44 0
-41 -42 -43 0
-46 -47 -48 0
-45 -47 -48 0
-45 -46 -48 0
-45 -46 -47 0
-50 -51 -52 0
-49 -51 -52 0
-49 -50 -52 0
-49 -50 -51 0
-54 -55 -56 0
-53 -55 -56 0
-53 -54 -56 0
-53 -54 -55 0
-58 -59 -60 0
-57 -59 -60 0
-57 -58 -60 0
-57 -58 -59 0
-62 -63 -64 0
-61 -63 -64 0
-61 -62 -64 0
-61 -62 -63 0
-65 -66 -67 0
-65 -66 -68 0
-65 -66 -69 0
-65 -67 -68 0
-65 -67 -69 0
-65 -68 -69 0
-66 -67 -68 0
-66 -67 -69 0
-66 -68 -69 0
-67 -68 -69 0
8 49 55 0
48 49 55 0
48 8 55 0
48 8 49 0
15 46 22 0
64 46 22 0
64 15 22 0
64 15 46 0
13 57 17 0
3 57 17 0
3 13 17 0
3 13 57 0
44 10 52 0
16 10 52 0
16 44 52 0
16 44 10 0
58 41 47 0
32 41 47 0
32 58 47 0
32 58 41 0
66 20 43 0
23 20 43 0
23 66 43 0
23 66 20 0
21 7 38 0
12 7 38 0
12 21 38 0
12 21 7 0
60 6 63 0
27 6 63 0
27 60 63 0
27 60 6 0
28 54 42 0
34 54 42 0
34 28 42 0
34 28 54 0
11 30 25 0
1 30 25 0
1 11 25 0
1 11 30 0
31 37 18 0
56 37 18 0
56 31 18 0
56 31 37 0
59 65 50 0
39 65 50 0
39 59 50 0
39 59 65 0
9 35 19 0
62 35 19 0
62 9 19 0
62 9 35 0
69 45 40 0
26 45 40 0
26 69 40 0
26 69 45 0
4 51 36 0
24 51 36 0
24 4 36 0
24 4 51 0
61 53 68 0
2 53 68 0
2 61 68 0
2 61 53 0
29 67 33 0
29 67 5 0
29 67 14 0
29 33 5 0
29 33 14 0
29 5 14 0
67 33 5 0
67 33 14 0
67 5 14 0
33 5 14 0
